50 9153

429
262
232
249
364
422
132
134
464
384
381
57
32
185
165
126
425
259
106
137
386
41
239
46
305
227
92
313
407
331
83
146
145
273
235
260
137
265
293
160
207
241
210
93
142
41
479
172
245
283
